int NumberPatients = 117
int NumberOfRooms = 10
int NumberSurgeons = 27
int NumberOfDays = 6
Duration = [112,98,79,47,32,32,103,157,47,66,119,66,60,46,30,32,46,105,98,98,103,198,98,47,105,131,97,103,31,76,87,98,105,210,105,47,103,66,101,85,98,41,75,47,227,119,68,47,32,277,98,103,32,103,103,210,31,78,50,60,68,98,60,66,131,47,119,103,59,103,98,78,98,98,59,55,28,31,32,32,103,32,98,98,93,93,53,72,264,47,119,66,32,39,166,256,256,92,98,47,85,85,53,98,72,32,66,201,166,105,264,166,47,105,98,131,238];
Priority = [0,0,0,0,0,0,0,0,0,0,0,0,0,0,0,0,0,0,0,0,0,0,0,1,0,0,0,0,1,0,0,0,0,0,0,0,0,0,0,0,0,0,0,0,0,0,0,0,0,0,0,0,0,0,0,0,0,0,0,0,0,0,0,0,0,0,0,0,0,0,0,0,0,0,0,0,0,0,0,0,0,0,0,0,0,0,0,0,0,0,0,0,0,0,0,0,0,0,0,0,1,0,0,0,0,0,0,0,0,0,0,0,0,0,0,0,0];
Waiting = [24,284,150,80,74,101,324,35,39,52,150,92,53,163,121,134,79,66,200,72,123,30,297,107,193,45,45,74,36,135,78,196,148,133,21,87,66,84,50,102,480,78,120,38,106,59,165,78,80,32,35,366,464,198,123,70,22,120,58,200,49,53,63,79,56,225,162,37,319,25,121,127,291,228,199,107,144,248,120,50,158,36,39,213,361,123,158,79,151,144,227,71,148,179,221,456,45,137,144,115,35,430,36,31,417,141,59,102,46,190,45,45,247,39,31,80,137];
Surgeon = [3,7,4,1,5,5,1,2,4,1,8,2,3,6,8,5,14,2,8,4,5,1,3,1,2,10,9,7,7,1,5,3,2,5,1,8,3,4,5,3,4,2,1,1,1,1,4,6,6,11,4,3,3,6,5,3,3,3,3,3,6,3,2,4,6,3,7,4,5,5,5,2,2,5,8,1,4,5,1,2,5,4,12,6,5,2,2,11,9,5,8,4,7,5,1,7,1,5,2,6,9,2,1,8,13,4,1,1,5,1,1,3,1,6,1,17,1];
BlockAvailability = [[[0,0],[1,0],[0,0],[1,0],[0,0],[0,0],[0,0],[0,0],[0,0],[1,0]],[[0,0],[0,0],[0,0],[0,0],[1,0],[0,1],[0,0],[0,0],[1,0],[0,0]],[[0,0],[0,0],[0,1],[0,1],[0,0],[1,0],[0,0],[1,0],[1,0],[0,0]],[[0,0],[0,1],[1,0],[1,0],[0,0],[0,0],[0,0],[1,0],[0,0],[0,0]],[[1,0],[1,0],[0,0],[0,0],[0,0],[0,0],[0,0],[0,0],[0,1],[0,1]],[[0,0],[0,0],[1,0],[0,0],[1,0],[1,1],[1,0],[0,0],[1,0],[0,1]]];
SurgeonAvailability = [[[1,0],[1,0],[0,1],[1,1],[1,1],[1,1]],[[1,1],[1,1],[1,1],[0,1],[1,1],[1,1]],[[1,0],[1,1],[1,0],[1,1],[1,1],[1,0]],[[0,1],[1,1],[0,1],[0,1],[1,1],[1,1]],[[1,1],[0,1],[1,1],[1,1],[1,0],[1,1]],[[1,1],[1,1],[1,1],[0,1],[1,1],[1,1]],[[1,1],[1,1],[1,1],[1,1],[1,1],[1,1]],[[1,1],[1,0],[0,1],[0,1],[1,1],[1,1]],[[1,1],[1,1],[1,0],[1,1],[1,0],[1,1]],[[1,1],[0,0],[1,1],[0,1],[1,1],[1,0]],[[0,1],[0,0],[1,1],[1,0],[1,0],[1,1]],[[1,1],[1,1],[1,1],[0,1],[1,1],[1,1]],[[0,1],[1,1],[1,1],[1,1],[1,1],[1,1]],[[1,1],[0,0],[1,1],[0,1],[0,1],[1,0]],[[1,1],[1,1],[1,1],[1,1],[1,1],[1,1]],[[1,0],[0,1],[1,1],[0,1],[0,1],[1,1]],[[0,0],[1,1],[1,0],[1,1],[0,1],[1,0]],[[1,1],[1,0],[0,1],[1,1],[0,1],[1,1]],[[1,1],[0,1],[0,1],[1,1],[1,1],[1,1]],[[0,1],[1,1],[1,1],[1,1],[1,0],[1,0]],[[1,1],[1,1],[1,1],[1,0],[1,1],[0,1]],[[1,0],[1,1],[1,0],[1,1],[1,0],[1,1]],[[1,1],[1,1],[1,1],[1,1],[1,1],[0,0]],[[0,0],[0,1],[1,1],[1,0],[1,1],[1,1]],[[0,1],[0,1],[1,1],[0,1],[0,1],[1,1]],[[0,0],[1,1],[1,1],[1,1],[0,1],[0,1]],[[0,1],[1,1],[1,0],[1,1],[1,0],[0,1]]];
